p cnf 349 922
e 349 1 348 0
a 82 0
e 99 347 6 5 4 3 2 102 346 0
a 83 84 0
e 105 345 15 14 13 12 11 10 9 8 7 111 114 117 119 120 344 0
a 85 86 0
e 124 343 25 24 23 22 21 20 19 18 17 16 130 133 136 139 142 144 146 147 342 0
a 87 88 0
e 151 341 35 34 33 32 31 30 29 28 27 26 154 160 163 166 169 172 174 176 177 340 0
a 89 90 0
e 181 339 49 48 47 46 45 44 43 42 41 40 39 38 37 36 184 192 195 198 201 204 207 209 210 338 0
a 91 92 93 0
e 215 337 61 60 59 58 57 56 55 54 53 52 51 50 218 224 227 230 233 236 239 242 245 248 250 252 253 336 0
a 94 95 0
e 257 335 71 70 69 68 67 66 65 64 63 62 260 266 270 273 276 279 282 285 288 290 291 334 0
a 96 97 0
e 295 333 77 76 75 74 73 72 298 301 304 307 310 313 316 318 319 332 0
a 98 0
e 320 331 80 79 78 321 323 325 327 328 330 81 329 326 324 322 317 314 315 311 312 309 308 306 305 303 302 300 299 297 296 292 293 294 289 286 287 283 284 281 280 278 277 275 274 272 271 268 269 267 262 265 263 264 261 259 258 254 255 256 251 249 246 247 243 244 241 240 238 237 235 234 232 231 229 228 226 225 220 223 221 222 219 217 216 211 212 213 214 208 205 206 202 203 200 199 197 196 194 193 186 191 187 188 189 190 185 183 182 178 179 180 175 173 170 171 168 167 165 164 162 161 156 159 157 158 155 153 152 148 149 150 145 143 140 141 138 137 135 134 132 131 126 129 127 128 125 121 122 123 118 115 116 113 112 107 110 108 109 106 103 104 101 100 0
349 0
-1 -348 349 0
348 -349 0
1 -349 0
-348 99 347 0
348 -99 0
348 -347 0
-1 -82 -99 0
82 99 0
1 99 0
-102 -346 347 0
102 -347 0
346 -347 0
-82 -102 101 0
82 102 0
102 -101 0
-2 -5 -100 101 0
5 -101 0
2 -101 0
100 -101 0
3 4 6 -100 0
-3 100 0
-4 100 0
-6 100 0
-346 105 345 0
346 -105 0
346 -345 0
105 -103 -104 0
-105 103 0
-105 104 0
-3 83 -84 -103 0
3 103 0
-83 103 0
84 103 0
-2 -83 -84 -104 0
2 104 0
83 104 0
84 104 0
-111 -114 -117 -119 -120 -344 345 0
111 -345 0
114 -345 0
117 -345 0
119 -345 0
120 -345 0
344 -345 0
-111 107 110 0
111 -107 0
111 -110 0
-5 106 -107 0
5 107 0
-106 107 0
2 3 106 0
-3 -106 0
-2 -106 0
-13 -108 -109 110 0
13 -110 0
108 -110 0
109 -110 0
8 11 -108 0
-8 108 0
-11 108 0
9 10 15 -109 0
-9 109 0
-10 109 0
-15 109 0
8 -114 113 0
114 -113 0
-8 114 0
-4 112 -113 0
4 113 0
-112 113 0
2 3 112 0
-3 -112 0
-2 -112 0
-117 115 116 0
117 -115 0
117 -116 0
83 -84 -115 0
-83 115 0
84 115 0
-12 -14 116 0
12 -116 0
14 -116 0
7 -119 118 0
119 -118 0
-7 119 0
-83 -84 -118 0
83 118 0
84 118 0
-14 -15 -120 0
14 120 0
15 120 0
-344 124 343 0
344 -124 0
344 -343 0
124 -121 -122 -123 0
-124 121 0
-124 122 0
-124 123 0
-9 -85 86 -121 0
9 121 0
85 121 0
-86 121 0
-8 85 -86 -122 0
8 122 0
-85 122 0
86 122 0
-7 -85 -86 -123 0
7 123 0
85 123 0
86 123 0
-130 -133 -136 -139 -142 -144 -146 -147 -342 343 0
130 -343 0
133 -343 0
136 -343 0
139 -343 0
142 -343 0
144 -343 0
146 -343 0
147 -343 0
342 -343 0
-130 126 129 0
130 -126 0
130 -129 0
-13 125 -126 0
13 126 0
-125 126 0
7 8 9 125 0
-9 -125 0
-8 -125 0
-7 -125 0
-22 -127 -128 129 0
22 -129 0
127 -129 0
128 -129 0
17 20 -127 0
-17 127 0
-20 127 0
18 19 25 -128 0
-18 128 0
-19 128 0
-25 128 0
23 24 -133 132 0
133 -132 0
-24 133 0
-23 133 0
-12 131 -132 0
12 132 0
-131 132 0
7 8 9 131 0
-9 -131 0
-8 -131 0
-7 -131 0
23 -136 135 0
136 -135 0
-23 136 0
-11 134 -135 0
11 135 0
-134 135 0
7 8 9 134 0
-9 -134 0
-8 -134 0
-7 -134 0
17 -139 138 0
139 -138 0
-17 139 0
-10 137 -138 0
10 138 0
-137 138 0
7 8 9 137 0
-9 -137 0
-8 -137 0
-7 -137 0
-142 140 141 0
142 -140 0
142 -141 0
-85 86 -140 0
85 140 0
-86 140 0
-21 -24 141 0
21 -141 0
24 -141 0
24 -144 143 0
144 -143 0
-24 144 0
85 -86 -143 0
-85 143 0
86 143 0
16 -146 145 0
146 -145 0
-16 146 0
-85 -86 -145 0
85 145 0
86 145 0
-24 -25 -147 0
24 147 0
25 147 0
-342 151 341 0
342 -151 0
342 -341 0
151 -148 -149 -150 0
-151 148 0
-151 149 0
-151 150 0
-18 -87 88 -148 0
18 148 0
87 148 0
-88 148 0
-17 87 -88 -149 0
17 149 0
-87 149 0
88 149 0
-16 -87 -88 -150 0
16 150 0
87 150 0
88 150 0
-154 -160 -163 -166 -169 -172 -174 -176 -177 -340 341 0
154 -341 0
160 -341 0
163 -341 0
166 -341 0
169 -341 0
172 -341 0
174 -341 0
176 -341 0
177 -341 0
340 -341 0
35 -154 153 0
154 -153 0
-35 154 0
-23 152 -153 0
23 153 0
-152 153 0
16 17 18 152 0
-18 -152 0
-17 -152 0
-16 -152 0
-160 156 159 0
160 -156 0
160 -159 0
-22 155 -156 0
22 156 0
-155 156 0
16 17 18 155 0
-18 -155 0
-17 -155 0
-16 -155 0
-32 -157 -158 159 0
32 -159 0
157 -159 0
158 -159 0
26 30 -157 0
-26 157 0
-30 157 0
28 29 35 -158 0
-28 158 0
-29 158 0
-35 158 0
33 34 -163 162 0
163 -162 0
-34 163 0
-33 163 0
-21 161 -162 0
21 162 0
-161 162 0
16 17 18 161 0
-18 -161 0
-17 -161 0
-16 -161 0
33 -166 165 0
166 -165 0
-33 166 0
-20 164 -165 0
20 165 0
-164 165 0
16 17 18 164 0
-18 -164 0
-17 -164 0
-16 -164 0
26 -169 168 0
169 -168 0
-26 169 0
-19 167 -168 0
19 168 0
-167 168 0
16 17 18 167 0
-18 -167 0
-17 -167 0
-16 -167 0
-172 170 171 0
172 -170 0
172 -171 0
-87 88 -170 0
87 170 0
-88 170 0
-31 -34 171 0
31 -171 0
34 -171 0
34 -174 173 0
174 -173 0
-34 174 0
87 -88 -173 0
-87 173 0
88 173 0
27 -176 175 0
176 -175 0
-27 176 0
-87 -88 -175 0
87 175 0
88 175 0
-34 -35 -177 0
34 177 0
35 177 0
-340 181 339 0
340 -181 0
340 -339 0
181 -178 -179 -180 0
-181 178 0
-181 179 0
-181 180 0
-28 -89 90 -178 0
28 178 0
89 178 0
-90 178 0
-27 89 -90 -179 0
27 179 0
-89 179 0
90 179 0
-26 -89 -90 -180 0
26 180 0
89 180 0
90 180 0
-184 -192 -195 -198 -201 -204 -207 -209 -210 -338 339 0
184 -339 0
192 -339 0
195 -339 0
198 -339 0
201 -339 0
204 -339 0
207 -339 0
209 -339 0
210 -339 0
338 -339 0
49 -184 183 0
184 -183 0
-49 184 0
-33 182 -183 0
33 183 0
-182 183 0
26 27 28 182 0
-28 -182 0
-27 -182 0
-26 -182 0
-192 186 191 0
192 -186 0
192 -191 0
-32 185 -186 0
32 186 0
-185 186 0
26 27 28 185 0
-28 -185 0
-27 -185 0
-26 -185 0
-46 -187 -188 -189 -190 191 0
46 -191 0
187 -191 0
188 -191 0
189 -191 0
190 -191 0
37 43 -187 0
-37 187 0
-43 187 0
39 41 47 48 -188 0
-39 188 0
-41 188 0
-48 188 0
-47 188 0
38 40 49 -189 0
-38 189 0
-40 189 0
-49 189 0
38 42 -190 0
-38 190 0
-42 190 0
47 48 -195 194 0
195 -194 0
-48 195 0
-47 195 0
-31 193 -194 0
31 194 0
-193 194 0
26 27 28 193 0
-28 -193 0
-27 -193 0
-26 -193 0
47 -198 197 0
198 -197 0
-47 198 0
-30 196 -197 0
30 197 0
-196 197 0
26 27 28 196 0
-28 -196 0
-27 -196 0
-26 -196 0
37 -201 200 0
201 -200 0
-37 201 0
-29 199 -200 0
29 200 0
-199 200 0
26 27 28 199 0
-28 -199 0
-27 -199 0
-26 -199 0
-204 202 203 0
204 -202 0
204 -203 0
-89 90 -202 0
89 202 0
-90 202 0
-45 -48 203 0
45 -203 0
48 -203 0
-207 205 206 0
207 -205 0
207 -206 0
89 -90 -205 0
-89 205 0
90 205 0
-36 -37 -44 206 0
44 -206 0
36 -206 0
37 -206 0
48 -209 208 0
209 -208 0
-48 209 0
-89 -90 -208 0
89 208 0
90 208 0
-48 -49 -210 0
48 210 0
49 210 0
-338 215 337 0
338 -215 0
338 -337 0
215 -211 -212 -213 -214 0
-215 211 0
-215 212 0
-215 213 0
-215 214 0
-39 91 92 -93 -211 0
39 211 0
-91 211 0
-92 211 0
93 211 0
-38 -91 92 -93 -212 0
38 212 0
91 212 0
-92 212 0
93 212 0
-37 91 -92 -93 -213 0
37 213 0
-91 213 0
92 213 0
93 213 0
-36 -91 -92 -93 -214 0
36 214 0
91 214 0
92 214 0
93 214 0
-218 -224 -227 -230 -233 -236 -239 -242 -245 -248 -250 -252 -253 -336 337 0
218 -337 0
224 -337 0
227 -337 0
230 -337 0
233 -337 0
236 -337 0
239 -337 0
242 -337 0
245 -337 0
248 -337 0
250 -337 0
252 -337 0
253 -337 0
336 -337 0
61 -218 217 0
218 -217 0
-61 218 0
-47 216 -217 0
47 217 0
-216 217 0
36 37 38 39 216 0
-39 -216 0
-38 -216 0
-37 -216 0
-36 -216 0
-224 220 223 0
224 -220 0
224 -223 0
-46 219 -220 0
46 220 0
-219 220 0
36 37 38 39 219 0
-39 -219 0
-38 -219 0
-37 -219 0
-36 -219 0
-58 -221 -222 223 0
58 -223 0
221 -223 0
222 -223 0
50 54 -221 0
-50 221 0
-54 221 0
51 53 61 -222 0
-51 222 0
-53 222 0
-61 222 0
59 60 -227 226 0
227 -226 0
-60 227 0
-59 227 0
-45 225 -226 0
45 226 0
-225 226 0
36 37 38 39 225 0
-39 -225 0
-38 -225 0
-37 -225 0
-36 -225 0
52 61 -230 229 0
230 -229 0
-52 230 0
-61 230 0
-44 228 -229 0
44 229 0
-228 229 0
36 37 38 39 228 0
-39 -228 0
-38 -228 0
-37 -228 0
-36 -228 0
59 -233 232 0
233 -232 0
-59 233 0
-43 231 -232 0
43 232 0
-231 232 0
36 37 38 39 231 0
-39 -231 0
-38 -231 0
-37 -231 0
-36 -231 0
55 -236 235 0
236 -235 0
-55 236 0
-42 234 -235 0
42 235 0
-234 235 0
36 37 38 39 234 0
-39 -234 0
-38 -234 0
-37 -234 0
-36 -234 0
52 -239 238 0
239 -238 0
-52 239 0
-41 237 -238 0
41 238 0
-237 238 0
36 37 38 39 237 0
-39 -237 0
-38 -237 0
-37 -237 0
-36 -237 0
50 -242 241 0
242 -241 0
-50 242 0
-40 240 -241 0
40 241 0
-240 241 0
36 37 38 39 240 0
-39 -240 0
-38 -240 0
-37 -240 0
-36 -240 0
-245 243 244 0
245 -243 0
245 -244 0
91 92 -93 -243 0
-91 243 0
-92 243 0
93 243 0
-50 -57 -61 244 0
57 -244 0
61 -244 0
50 -244 0
-248 246 247 0
248 -246 0
248 -247 0
-91 92 -93 -246 0
91 246 0
-92 246 0
93 246 0
-56 -60 247 0
56 -247 0
60 -247 0
60 -250 249 0
250 -249 0
-60 250 0
91 -92 -93 -249 0
-91 249 0
92 249 0
93 249 0
59 -252 251 0
252 -251 0
-59 252 0
-91 -92 -93 -251 0
91 251 0
92 251 0
93 251 0
-60 -61 -253 0
60 253 0
61 253 0
-336 257 335 0
336 -257 0
336 -335 0
257 -254 -255 -256 0
-257 254 0
-257 255 0
-257 256 0
-52 -94 95 -254 0
52 254 0
94 254 0
-95 254 0
-51 94 -95 -255 0
51 255 0
-94 255 0
95 255 0
-50 -94 -95 -256 0
50 256 0
94 256 0
95 256 0
-260 -266 -270 -273 -276 -279 -282 -285 -288 -290 -291 -334 335 0
260 -335 0
266 -335 0
270 -335 0
273 -335 0
276 -335 0
279 -335 0
282 -335 0
285 -335 0
288 -335 0
290 -335 0
291 -335 0
334 -335 0
71 -260 259 0
260 -259 0
-71 260 0
-59 258 -259 0
59 259 0
-258 259 0
50 51 52 258 0
-52 -258 0
-51 -258 0
-50 -258 0
-266 262 265 0
266 -262 0
266 -265 0
-58 261 -262 0
58 262 0
-261 262 0
50 51 52 261 0
-52 -261 0
-51 -261 0
-50 -261 0
-67 -263 -264 265 0
67 -265 0
263 -265 0
264 -265 0
62 66 -263 0
-62 263 0
-66 263 0
63 65 71 -264 0
-63 264 0
-65 264 0
-71 264 0
68 -270 268 269 0
270 -268 0
270 -269 0
-68 270 0
-57 267 -268 0
57 268 0
-267 268 0
50 51 52 267 0
-52 -267 0
-51 -267 0
-50 -267 0
-62 -71 269 0
71 -269 0
62 -269 0
69 70 -273 272 0
273 -272 0
-70 273 0
-69 273 0
-56 271 -272 0
56 272 0
-271 272 0
50 51 52 271 0
-52 -271 0
-51 -271 0
-50 -271 0
64 71 -276 275 0
276 -275 0
-64 276 0
-71 276 0
-55 274 -275 0
55 275 0
-274 275 0
50 51 52 274 0
-52 -274 0
-51 -274 0
-50 -274 0
69 -279 278 0
279 -278 0
-69 279 0
-54 277 -278 0
54 278 0
-277 278 0
50 51 52 277 0
-52 -277 0
-51 -277 0
-50 -277 0
62 -282 281 0
282 -281 0
-62 282 0
-53 280 -281 0
53 281 0
-280 281 0
50 51 52 280 0
-52 -280 0
-51 -280 0
-50 -280 0
-285 283 284 0
285 -283 0
285 -284 0
-94 95 -283 0
94 283 0
-95 283 0
-62 -71 284 0
71 -284 0
62 -284 0
-288 286 287 0
288 -286 0
288 -287 0
94 -95 -286 0
-94 286 0
95 286 0
-68 -70 287 0
68 -287 0
70 -287 0
70 -290 289 0
290 -289 0
-70 290 0
-94 -95 -289 0
94 289 0
95 289 0
-70 -71 -291 0
70 291 0
71 291 0
-334 295 333 0
334 -295 0
334 -333 0
295 -292 -293 -294 0
-295 292 0
-295 293 0
-295 294 0
-64 -96 97 -292 0
64 292 0
96 292 0
-97 292 0
-63 96 -97 -293 0
63 293 0
-96 293 0
97 293 0
-62 -96 -97 -294 0
62 294 0
96 294 0
97 294 0
-298 -301 -304 -307 -310 -313 -316 -318 -319 -332 333 0
298 -333 0
301 -333 0
304 -333 0
307 -333 0
310 -333 0
313 -333 0
316 -333 0
318 -333 0
319 -333 0
332 -333 0
77 -298 297 0
298 -297 0
-77 298 0
-69 296 -297 0
69 297 0
-296 297 0
62 63 64 296 0
-64 -296 0
-63 -296 0
-62 -296 0
75 76 -301 300 0
301 -300 0
-76 301 0
-75 301 0
-68 299 -300 0
68 300 0
-299 300 0
62 63 64 299 0
-64 -299 0
-63 -299 0
-62 -299 0
72 73 -304 303 0
304 -303 0
-72 304 0
-73 304 0
-67 302 -303 0
67 303 0
-302 303 0
62 63 64 302 0
-64 -302 0
-63 -302 0
-62 -302 0
75 -307 306 0
307 -306 0
-75 307 0
-66 305 -306 0
66 306 0
-305 306 0
62 63 64 305 0
-64 -305 0
-63 -305 0
-62 -305 0
72 -310 309 0
310 -309 0
-72 310 0
-65 308 -309 0
65 309 0
-308 309 0
62 63 64 308 0
-64 -308 0
-63 -308 0
-62 -308 0
-313 311 312 0
313 -311 0
313 -312 0
-96 97 -311 0
96 311 0
-97 311 0
-72 -77 312 0
77 -312 0
72 -312 0
-316 314 315 0
316 -314 0
316 -315 0
96 -97 -314 0
-96 314 0
97 314 0
-74 -76 315 0
74 -315 0
76 -315 0
76 -318 317 0
318 -317 0
-76 318 0
-96 -97 -317 0
96 317 0
97 317 0
-76 -77 -319 0
76 319 0
77 319 0
-332 320 331 0
332 -320 0
332 -331 0
-72 -98 -320 0
98 320 0
72 320 0
-321 -323 -325 -327 -328 -330 331 0
321 -331 0
323 -331 0
325 -331 0
327 -331 0
328 -331 0
330 -331 0
-98 79 -321 0
98 321 0
-79 321 0
80 322 -323 0
-322 323 0
-80 323 0
-72 -75 -322 0
75 322 0
72 322 0
78 79 324 -325 0
-324 325 0
-79 325 0
-78 325 0
-72 -74 -324 0
74 324 0
72 324 0
78 326 -327 0
-326 327 0
-78 327 0
-72 -73 -326 0
73 326 0
72 326 0
-79 -80 -328 0
79 328 0
80 328 0
81 329 -330 0
-329 330 0
-81 330 0
329 0
